%%% static parameters %%%
timespan = 1;
Fact = [2];
Distr1 = [5];
Distr2 = [10];
Clients_N = [60];
Demand_W = [15];
Lt0 = [4];
Lt1 = [4];
SS_ = [0.85];
DS_D = [8];
K = [200];
MA = [500];
%%% dynamic parameters %%%
lost_ratio_sales_ret_th = 0.16175036097723106;
lost_ratio_sales_ret_w = 80;
lost_ratio_sales_dis_th = 0.8383990776517857;
lost_ratio_sales_dis_w = 2;
lost_ratio_sales_fac_th = 0.07979962754747061;
lost_ratio_sales_fac_w = 61;
stock_customer_MA_mean_relative_th = 0.14327293477121283;
stock_customer_MA_mean_relative_w = 63;
stock_distributor_MA_mean_relative_th = 0.06512085165444559;
stock_distributor_MA_mean_relative_w = 73;
stock_retailer_MA_mean_relative_th = 0.9370609294370403;
stock_retailer_MA_mean_relative_w = 74;
stock_factory_MA_mean_relative_th = 0.11572261751311064;
stock_factory_MA_mean_relative_w = 57;
